fitness = 1.0
3 1 7 3 1 7 3 1 7 3 1 7 3 1 7 3 1 7 3 1 7 3 1 8 3 1 8 3 1 8 3 1 1 1 1 1 1 1 1 1 1 1 1 1 1 1 1 1 1 1 1 1 1 1 1 1 1 1 1 1 1 1 1 1 1 1 1 1 1 1 1 1 1 1 1 1 1 1 1 1 1 1 1 1 1 1 1 1 1 1 1 1 1 1 1 1 